$$$$$$$$$$$$$$$$$$$$$$$$$$$$$$$$$$$$$$$$$$$$$$$$$$$$$$$$$$$$$$$$$$$$$$$$$$$$
$ Al-Cu-Mg-Si
$
$ This will be use as a starter for other databases
$ Parameters will be sorted by phases then by elements
$
$ Binaries
$   Al-Cu
$   Al-Fe
$   Al-Mg
$   Al-Si
$   Cu-Fe
$   Cu-Mg
$   Cu-Si
$   Fe-Mg
$   Fe-Si
$   Mg-Si
$
$ Ternaries
$   Al-Cu-Fe
$   Al-Cu-Mg
$   Al-Cu-Si
$   Al-Fe-Mg - not added
$   Al-Fe-Si
$   Al-Mg-Si
$   Cu-Fe-Mg - not added
$   Cu-Fe-Si
$   Cu-Mg-Si
$   Fe-Mg-Si
$
$ Quaternaries (only systems with quaternary phases will be listed)
$   Al-Cu-Mg-Si
$   Al-Fe-Mg-Si
$
$ Notes
$   Inverse miscibility gap in liquid phase in Cu-Mg (>2500) and 
$   Fe-Si (>2000)
$
$   The Cu-Si assessment from SOL19 fixes the inverse miscibility gap in
$   liquid phase; however, I have not tested it on ternaries other than
$   Cu-Fe-Si
$
$   Al-Cu-Fe - mixing parameters to add Fe to AL4CU9_D82 and AL4CU9_D83
$   were not included since the sublattice models are different. I could
$   also not fully reproduce the figures in CHEN09; however, negating the
$   mixing parameters in the BCC_B2 phase helped it get closer, but still
$   not exactly reproducing
$
$   No assessment found for Al-Fe-Mg (I think there is a liquid miscibility
$   gap in the ternary composition space, but I do not think there is any
$   ternary compounds)
$
$   No assessment found for Cu-Fe-Mg, but based off B. Hu, S. Qin, Y. Du,
$   Z. Li, Q. Wang, JPEDAV 36 (2015) 333, this can be assumed to be an
$   ideal system
$$$$$$$$$$$$$$$$$$$$$$$$$$$$$$$$$$$$$$$$$$$$$$$$$$$$$$$$$$$$$$$$$$$$$$$$$$$$

ELEMENT /-   ELECTRON_GAS              0.0000E+00  0.0000E+00  0.0000E+00 !
ELEMENT VA   VACUUM                    0.0000E+00  0.0000E+00  0.0000E+00 !
ELEMENT AL   FCC_A1                    2.6982E+01  4.5773E+03  2.8322E+01 !
ELEMENT CU   FCC_A1                    6.3546E+01  5.0041E+03  3.3150E+01 !
ELEMENT FE   BCC_A2                    5.5847E+01  4.4890E+03  2.7280E+01 !
ELEMENT MG   HCP_A3                    2.4305E+01  4.9980E+03  3.2671E+01 !
ELEMENT SI   DIAMOND_A4                2.8085E+01  3.2175E+03  1.8820E+01 !

TYPE_DEFINITION % SEQ *!
DEFINE_SYSTEM_DEFAULT SPECIE 2 !
DEFAULT_COMMAND DEF_SYS_ELEMENT VA !

$ Al
$ -------------------------------------
FUNCTION GHSERAL 298.15
 -7976.15+137.093038*T-24.3671976*T*LN(T)-1.884662E-3*T**2-0.877664E-6*T**3
 +74092*T**(-1); 700 Y
 -11276.24+223.048446*T-38.5844296*T*LN(T)+18.531982E-3*T**2-5.764227E-6*T**3
 +74092*T**(-1); 933.473 Y
 -11278.361+188.684136*T-31.748192*T*LN(T)-1230.622E25*T**(-9); 2900 N !
 
FUNCTION GHCPAL 298.15 5481-1.8*T+GHSERAL; 2900 N !
 
FUNCTION GBCCAL 298.15 10083-4.813*T+GHSERAL; 2900 N !
 
FUNCTION GLIQAL 298.15 11005.045-11.84185*T+79.337E-21*T**7+GHSERAL; 933.473 Y
  -795.991+177.430209*T-31.748192*T*LN(T); 2900 N !
$ -------------------------------------

$ Cu
$ -------------------------------------
FUNCTION GHSERCU  298.15
 -7770.458+130.485235*T-24.112392*T*LN(T)-2.65684E-3*T**2+0.129223E-6*T**3
 +52478*T**(-1);  1357.77 Y
 -13542.026+183.803828*T-31.38*T*LN(T)+364.167E27*T**(-9);  3200.00 N !
 
FUNCTION GBCCCU 298.15 4017-1.255*T+GHSERCU; 3200 N !
 
FUNCTION GHCPCU 298.15 600+0.2*T+GHSERCU; 3200 N !
 
FUNCTION GLIQCU 298.15 12964.735-9.511904*T-584.89E-23*T**7+GHSERCU; 1357.77 Y
 -46.545+173.881484*T-31.38*T*LN(T); 3200 N !
$ -------------------------------------

$ Fe
$ -------------------------------------
FUNCTION GHSERFE  298.15
 1225.7+124.134*T-23.5143*T*LN(T)-4.39752E-3*T**2-0.058927E-6*T**3
 +77359*T**(-1); 1811 Y
 -25383.581+299.31255*T-46*T*LN(T)+2296.03E28*T**(-9);  6000.00 N !
 
FUNCTION GFCCFE   298.15
 -236.7+132.416*T-24.6643*T*LN(T)-3.75752E-3*T**2-0.058927E-6*T**3
 +77359*T**(-1); 1811 Y
 -27097.3963+300.252559*T-46*T*LN(T)+2788.54E28*T**(-9);  6000.00 N !
 
FUNCTION GLIQFE 298.15 12040.17-6.55843*T-367.516E-23*T**7+GHSERFE; 1811 Y
 -10838.83+291.302*T-46*T*LN(T);  6000.00 N !
 
FUNCTION GHCPFE   298.15
 -2480.08+136.725*T-24.6643*T*LN(T)-3.75752E-3*T**2-0.058927E-6*T**3
 +77359*T**(-1);  1811.00 Y
 -29340.776+304.561559*T-46*T*LN(T)+2788.54E28*T**(-9);  6000.00 N !
$ -------------------------------------

$ Mg
$ -------------------------------------
FUNCTION GHSERMG  298.15
 -8367.34+143.675547*T-26.1849782*T*LN(T)+0.4858E-3*T**2-1.393669E-6*T**3
 +78950*T**(-1);   923.00 Y
 -14130.185+204.716215*T-34.3088*T*LN(T)+1038.192E25*T**(-9);  3000.00 N !
 
FUNCTION GLIQMG 298.15 8202.243-8.83693*T-80.176E-21*T**7+GHSERMG; 923 Y
 -5439.869+195.324057*T-34.3088*T*LN(T);  3000.00 N !
 
FUNCTION GFCCMG 298.15 2600-0.9*T+GHSERMG; 3000 N !
 
FUNCTION GBCCMG 298.15 3100-2.1*T+GHSERMG; 3000 N !
$ -------------------------------------

$ Si
$ -------------------------------------
FUNCTION GHSERSI  298.15
 -8162.609+137.236859*T-22.8317533*T*LN(T)-1.912904E-3*T**2-0.003552E-6*T**3
 +176667*T**(-1);  1687.00 Y
 -9457.642+167.281367*T-27.196*T*LN(T)-420.369E28*T**(-9);  3600.00 N !
 
FUNCTION GLIQSI 298.15 50696.36-30.099439*T+209.307E-23*T**7+GHSERSI; 1687 Y
 40370.523+137.722298*T-27.196*T*LN(T);  3600.00 N !
 
FUNCTION GBCCSI 298.15 47000-22.5*T+GHSERSI; 3600 N !
 
FUNCTION GFCCSI 298.15 51000-21.8*T+GHSERSI; 3600 N !
 
FUNCTION GHCPSI 298.15 49200-20.8*T+GHSERSI; 3600 N !
$ -------------------------------------

$$$$$$$$$$$$$$$$$$$$$$$$$$$$$$$$$$$$$$$$$$$$$$$$$$$$$$$$$$$$$$$$$$$$$$$$$$$
$ Phase:           ALCU_B82
$ Aliases:         EPSILON_2
$ Space group:     P6_3/mmc
$ Strukturbericht: 
$ Pearson symbol:  hP6
$ Prototype:       Ni2In
$$$$$$$$$$$$$$$$$$$$$$$$$$$$$$$$$$$$$$$$$$$$$$$$$$$$$$$$$$$$$$$$$$$$$$$$$$$
PHASE ALCU_B82 % 2 1 1 !
CONSTITUENT ALCU_B82 : AL,CU : CU : !

PARAM G(ALCU_B82,AL:CU;0) 298.15 GHSERAL + GHSERCU +
    -40326 + 4.1*T; 6000 N LIA15 !
PARAM G(ALCU_B82,CU:CU;0) 298.15 2*GHSERCU + 
    14850 + 30.1*T; 6000 N LIA15 !
PARAM G(ALCU_B82,AL,CU:CU;0) 298.15 -56870 - 55*T; 6000 N LIA15 !

$$$$$$$$$$$$$$$$$$$$$$$$$$$$$$$$$$$$$$$$$$$$$$$$$$$$$$$$$$$$$$$$$$$$$$$$$$$
$ Phase:           ALCU_C16
$ Aliases:         THETA
$ Space group:     I4/mcm
$ Strukturbericht: C16
$ Pearson symbol:  tl12
$ Prototype:       CuAl2
$$$$$$$$$$$$$$$$$$$$$$$$$$$$$$$$$$$$$$$$$$$$$$$$$$$$$$$$$$$$$$$$$$$$$$$$$$$
PHASE ALCU_C16 % 2 2 1 !
CONSTITUENT ALCU_C16 : AL : AL,CU : !

PARAM G(ALCU_C16,AL:AL;0) 298.15 3*GBCCAL; 6000 N LIA15 !
PARAM G(ALCU_C16,AL:CU;0) 298.15 2*GHSERAL + GHSERCU +
    -48361 + 8*T; 6000 N LIA15 !
PARAM G(ALCU_C16,AL:AL,CU;0) 298.15 2211; 6000 N LIA15 !

$$$$$$$$$$$$$$$$$$$$$$$$$$$$$$$$$$$$$$$$$$$$$$$$$$$$$$$$$$$$$$$$$$$$$$$$$$$
$ Phase:           ALCU_ETA_1
$ Space group:     Cmmm
$ Strukturbericht: 
$ Pearson symbol:  oS32
$ Prototype:       CU0.94Al0.94
$$$$$$$$$$$$$$$$$$$$$$$$$$$$$$$$$$$$$$$$$$$$$$$$$$$$$$$$$$$$$$$$$$$$$$$$$$$
PHASE ALCU_ETA_1 % 2 1 1 !
CONSTITUENT ALCU_ETA_1 : AL,CU : CU : !

PARAM G(ALCU_ETA_1,AL:CU;0) 298.15 GHSERAL + GHSERCU +
    -39431 + 1.9*T; 6000 N LIA15 !
PARAM G(ALCU_ETA_1,CU:CU;0) 298.15 2*GHSERCU + 
    4770 + 9*T; 6000 N LIA15 !
PARAM G(ALCU_ETA_1,AL,CU:CU;0) 298.15 0; 6000 N LIA15 !
PARAM G(ALCU_ETA_1,AL,CU:CU;1) 298.15 -43168 - 18.5*T; 6000 N LIA15 !

$$$$$$$$$$$$$$$$$$$$$$$$$$$$$$$$$$$$$$$$$$$$$$$$$$$$$$$$$$$$$$$$$$$$$$$$$$$
$ Phase:           ALCU_ETA_2
$ Space group:     C2/m
$ Strukturbericht: 
$ Pearson symbol:  mC20
$ Prototype:       CuAl(r)
$$$$$$$$$$$$$$$$$$$$$$$$$$$$$$$$$$$$$$$$$$$$$$$$$$$$$$$$$$$$$$$$$$$$$$$$$$$
PHASE ALCU_ETA_2 % 2 0.48 0.52 !
CONSTITUENT ALCU_ETA_2 : AL : CU : !

PARAM G(ALCU_ETA_2,AL:CU;0) 298.15 0.48*GHSERAL + 0.52*GHSERCU +
    -20987 + 1.62*T; 6000 N LIA15 !

$$$$$$$$$$$$$$$$$$$$$$$$$$$$$$$$$$$$$$$$$$$$$$$$$$$$$$$$$$$$$$$$$$$$$$$$$$$
$ Phase:           ALCU4_D022
$ Aliases:         ALPHA_2
$ Space group:     
$ Strukturbericht: D022
$ Pearson symbol:  
$ Prototype:       TiAl3
$$$$$$$$$$$$$$$$$$$$$$$$$$$$$$$$$$$$$$$$$$$$$$$$$$$$$$$$$$$$$$$$$$$$$$$$$$$
PHASE ALCU4_D022 % 0.23 0.77 !
CONSTITUENT ALCU4_D022 : AL : CU : !

PARAM G(ALCU4_D022,AL:CU;0) 298.15 0.23*GHSERAL + 0.77*GHSERCU +
    -13904.9 - 3*T; 6000 N LIA15 !

$$$$$$$$$$$$$$$$$$$$$$$$$$$$$$$$$$$$$$$$$$$$$$$$$$$$$$$$$$$$$$$$$$$$$$$$$$$
$ Phase:           AL4CU9_D82
$ Aliases:         GAMMA_2
$ Space group:     I-43m
$ Strukturbericht: D82
$ Pearson symbol:  cI52
$ Prototype:       Cu5Zn8
$$$$$$$$$$$$$$$$$$$$$$$$$$$$$$$$$$$$$$$$$$$$$$$$$$$$$$$$$$$$$$$$$$$$$$$$$$$
PHASE AL4CU9_D82 % 3 4 6 16 !
CONSTITUENT AL4CU9_D82 : CU : CU : AL,CU,SI : !

PARAM G(AL4CU9_D82,CU:CU:CU;0) 298.15 26*GHSERCU + 2600; 6000 N LIA15 !

$ Al-Cu
PARAM G(AL4CU9_D82,CU:CU:AL;0) 298.15 16*GHSERAL + 10*GHSERCU +
    -94322.4 + 389.508*T; 6000 N LIA15 !
PARAM G(AL4CU9_D82,CU:CU:AL,CU;0) 298.15 -1451526.6 - 859.628*T; 6000 N LIA15 !
PARAM G(AL4CU9_D82,CU:CU:AL,CU;1) 298.15 -1516652.4 - 92*T; 6000 N LIA15 !

$ Cu-Si
PARAM G(AL4CU9_D82,CU:CU:SI;0) 298.15 10*GHSERCU + 16*GHSERSI +
    750000 - 360*T; 6000 N HAL15 !
PARAM G(AL4CU9_D82,CU:CU:CU,SI;0) 298.15 -950000; 6000 N HAL15 !
PARAM G(AL4CU9_D82,CU:CU:CU,SI;1) 298.15 -900000; 6000 N HAL15 !
PARAM G(AL4CU9_D82,CU:CU:CU,SI;2) 298.15 1000000; 6000 N HAL15 !

$ Al-Cu-Si
PARAM G(AL4CU9_D82,CU:CU:AL,CU,SI;0) 298.15 0; 6000 N HAL15 !
PARAM G(AL4CU9_D82,CU:CU:AL,CU,SI;1) 298.15 -4400000; 6000 N HAL15 !
PARAM G(AL4CU9_D82,CU:CU:AL,CU,SI;2) 298.15 0; 6000 N HAL15 !

$$$$$$$$$$$$$$$$$$$$$$$$$$$$$$$$$$$$$$$$$$$$$$$$$$$$$$$$$$$$$$$$$$$$$$$$$$$
$ Phase:           AL4CU9_D83
$ Aliases:         GAMMA_1
$ Space group:     P-43m
$ Strukturbericht: 
$ Pearson symbol:  cP52
$ Prototype:       Cu9Al4
$$$$$$$$$$$$$$$$$$$$$$$$$$$$$$$$$$$$$$$$$$$$$$$$$$$$$$$$$$$$$$$$$$$$$$$$$$$
PHASE AL4CU9_D83 % 3 4 6 16 !
CONSTITUENT AL4CU9_D83 : CU : CU : AL,CU,SI : !

PARAM G(AL4CU9_D83,CU:CU:CU;0) 298.15 26*GHSERCU + 2600; 6000 N LIA15 !

$ Al-Cu
PARAM G(AL4CU9_D83,CU:CU:AL;0) 298.15 16*GHSERAL + 10*GHSERCU +
    -94322.4 + 389.508*T; 6000 N LIA15 !
PARAM G(AL4CU9_D83,CU:CU:AL,CU;0) 298.15 -1613680 - 708*T; 6000 N LIA15 !
PARAM G(AL4CU9_D83,CU:CU:AL,CU;1) 298.15 -1585780 - 100*T; 6000 N LIA15 !

$ Cu-Si
PARAM G(AL4CU9_D83,CU:CU:SI;0) 298.15 10*GHSERCU + 16*GHSERSI +
    750000 - 360*T; 6000 N HAL15 !
PARAM G(AL4CU9_D83,CU:CU:CU,SI;0) 298.15 -950000; 6000 N HAL15 !
PARAM G(AL4CU9_D83,CU:CU:CU,SI;1) 298.15 -900000; 6000 N HAL15 !
PARAM G(AL4CU9_D83,CU:CU:CU,SI;2) 298.15 1000000; 6000 N HAL15 !

$ Al-Cu-Si
PARAM G(AL4CU9_D83,CU:CU:AL,CU,SI;0) 298.15 0; 6000 N HAL15 !
PARAM G(AL4CU9_D83,CU:CU:AL,CU,SI;1) 298.15 -4700000; 6000 N HAL15 !
PARAM G(AL4CU9_D83,CU:CU:AL,CU,SI;2) 298.15 0; 6000 N HAL15 !

$$$$$$$$$$$$$$$$$$$$$$$$$$$$$$$$$$$$$$$$$$$$$$$$$$$$$$$$$$$$$$$$$$$$$$$$$$$
$ Phase:           AL5CU8
$ Aliases:         DELTA
$ Space group:     R-3m
$ Strukturbericht: 
$ Pearson symbol:  hR*
$ Prototype:       
$$$$$$$$$$$$$$$$$$$$$$$$$$$$$$$$$$$$$$$$$$$$$$$$$$$$$$$$$$$$$$$$$$$$$$$$$$$
PHASE AL5CU8 % 2 5 8 !
CONSTITUENT AL5CU8 : AL : CU : !

PARAM G(AL5CU8,AL:CU;0) 298.15 5*GHSERAL + 8*GHSERCU +
    -278450 + 5.2*T; 6000 N LIA15 !

$$$$$$$$$$$$$$$$$$$$$$$$$$$$$$$$$$$$$$$$$$$$$$$$$$$$$$$$$$$$$$$$$$$$$$$$$$$
$ Phase:           AL9CU11
$ Aliases:         XI
$ Space group:     Fmm2 or Imm2
$ Strukturbericht: 
$ Pearson symbol:  oF88 or ol24
$ Prototype:       Al47.8Al35.5 or Al11.5Al9.0
$$$$$$$$$$$$$$$$$$$$$$$$$$$$$$$$$$$$$$$$$$$$$$$$$$$$$$$$$$$$$$$$$$$$$$$$$$$
PHASE AL9CU11 % 2 9 11 !
CONSTITUENT AL9CU11 : AL,CU : CU : !

PARAM G(AL9CU11,AL:AL;0) 298.15 20*GBCCAL; 6000 N LIA15 !
PARAM G(AL9CU11,AL:CU;0) 298.15 9*GHSERAL + 11*GHSERCU +
    -424720 + 20*T; 6000 N LIA15 !
PARAM G(AL9CU11,AL,CU:CU;0) 298.15 0; 6000 N LIA15 !
PARAM G(AL9CU11,AL,CU:CU;1) 298.15 -413300 + 100*T; 6000 N LIA15 !

$$$$$$$$$$$$$$$$$$$$$$$$$$$$$$$$$$$$$$$$$$$$$$$$$$$$$$$$$$$$$$$$$$$$$$$$$$$
$ Phase:           AL13FE4
$ Aliases:         AL3FE
$ Space group:     C2/m
$ Strukturbericht: 
$ Pearson symbol:  mC102
$ Prototype:       
$$$$$$$$$$$$$$$$$$$$$$$$$$$$$$$$$$$$$$$$$$$$$$$$$$$$$$$$$$$$$$$$$$$$$$$$$$$
PHASE AL13FE4 % 3 0.6275 0.235 0.1375 !
CONSTITUENT AL13FE4 : AL,CU : FE : AL,SI,VA : !

$ Al-Fe
PARAM G(AL13FE4,AL:FE:AL;0) 298.15 0.765*GHSERAL + 0.235*GHSERFE +
    -30714.3 + 7.44*T; 6000 N LIU99 !
PARAM G(AL13FE4,AL:FE:VA;0) 298.15 0.6275*GHSERAL + 0.235*GHSERFE +
    -27781.3 + 7.2566*T; 6000 N LIU99 !

$ Al-Cu-Fe
PARAM G(AL13FE4,CU:FE:AL;0) 298.15 0.6275*GHSERCU + 0.235*GHSERFE +
    0.1375*GHSERAL - 7525; 6000 N CHEN09 !
PARAM G(AL13FE4,CU:FE:VA;0) 298.15 0.6275*GHSERCU + 
    0.235*GHSERFE; 6000 N CHEN09 !
PARAM G(AL13FE4,AL,CU:FE:AL;0) 298.15 -14845; 6000 N CHEN09 !
PARAM G(AL13FE4,AL,CU:FE:VA;0) 298.15 -14845; 6000 N CHEN09 !

$ Al-Fe-Si
PARAM G(AL13FE4,AL:FE:SI;0) 298.15 0.6273*GHSERAL + 0.235*GHSERFE +
    0.1375*GHSERSI - 30118 + 6.965*T; 6000 N LIU99 !

$$$$$$$$$$$$$$$$$$$$$$$$$$$$$$$$$$$$$$$$$$$$$$$$$$$$$$$$$$$$$$$$$$$$$$$$$$$
$ Phase:           AL2FE
$ Aliases:         
$ Space group:     P1
$ Strukturbericht: 
$ Pearson symbol:  aP18
$ Prototype:       Al2Fe
$$$$$$$$$$$$$$$$$$$$$$$$$$$$$$$$$$$$$$$$$$$$$$$$$$$$$$$$$$$$$$$$$$$$$$$$$$$
PHASE AL2FE % 2 2 1 !
CONSTITUENT AL2FE : AL,CU : FE : !

$ Al-Fe
PARAM G(AL2FE,AL:FE;0) 298.15 2*GHSERAL + GHSERFE +
    -98096.9 + 18.7503*T; 6000 N LIU99 !

$ Al-Cu-Fe
PARAM G(AL2FE,CU:FE;0) 298.15 2*GHSERCU + GHSERFE; 6000 N CHEN09 !
PARAM G(AL2FE,AL,CU:FE;0) 298.15 -69000; 6000 N CHEN09 !

$$$$$$$$$$$$$$$$$$$$$$$$$$$$$$$$$$$$$$$$$$$$$$$$$$$$$$$$$$$$$$$$$$$$$$$$$$$
$ Phase:           AL5FE2
$ Aliases:         
$ Space group:     Cmcm
$ Strukturbericht: 
$ Pearson symbol:  oC*
$ Prototype:       
$$$$$$$$$$$$$$$$$$$$$$$$$$$$$$$$$$$$$$$$$$$$$$$$$$$$$$$$$$$$$$$$$$$$$$$$$$$
PHASE AL5FE2 % 2 5 2 !
CONSTITUENT AL5FE2 : AL,CU : FE : !

$ Al-Fe
PARAM G(AL5FE2,AL:FE;0) 298.15 5*GHSERAL + 2*GHSERFE +
    -228576 + 48.99503*T; 6000 N LIU99 !

$ Al-Cu-Fe
PARAM G(AL5FE2,CU:FE;0) 298.15 5*GHSERCU + 2*GHSERFE; 6000 N CHEN09 !
PARAM G(AL5FE2,AL,CU:FE;0) 298.15 -161000; 6000 N CHEN09 !

$$$$$$$$$$$$$$$$$$$$$$$$$$$$$$$$$$$$$$$$$$$$$$$$$$$$$$$$$$$$$$$$$$$$$$$$$$$
$ Phase:           AL5FE4
$ Aliases:         EPSILON
$ Space group:     
$ Strukturbericht: 
$ Pearson symbol:  cI16?
$ Prototype:       
$$$$$$$$$$$$$$$$$$$$$$$$$$$$$$$$$$$$$$$$$$$$$$$$$$$$$$$$$$$$$$$$$$$$$$$$$$$
PHASE AL5FE4 % 1 1 !
CONSTITUENT AL5FE4 : AL,FE : !

PARAM G(AL5FE4,AL;0) 298.15 GHSERAL + 12178.9 - 4.813*T; 6000 N LIU99 !
PARAM G(AL5FE4,FE;0) 298.15 GHSERFE + 5009.03; 6000 N LIU99 !
PARAM G(AL5FE4,AL,FE;0) 298.15 -131649 + 29.4833*T; 6000 N LIU99 !
PARAM G(AL5FE4,AL,FE;1) 298.15 -18619.5; 6000 N LIU99 !

$$$$$$$$$$$$$$$$$$$$$$$$$$$$$$$$$$$$$$$$$$$$$$$$$$$$$$$$$$$$$$$$$$$$$$$$$$$
$ Phase:           ALPHA
$ Aliases:         TAU_5, K_5, BETA, M
$ Space group:     
$ Strukturbericht: 
$ Pearson symbol:  
$ Prototype:       
$$$$$$$$$$$$$$$$$$$$$$$$$$$$$$$$$$$$$$$$$$$$$$$$$$$$$$$$$$$$$$$$$$$$$$$$$$$
PHASE ALPHA % 4 0.66 0.19 0.05 0.10 !
CONSTITUENT ALPHA : AL : FE : SI : AL,SI : !

PARAM G(ALPHA,AL:FE:SI:AL;0) 298.15 0.76*GHSERAL + 0.19*GHSERFE +
    0.05*GHSERSI - 27788 + 8.856*T; 6000 N LIU99 !
PARAM G(ALPHA,AL:FE:SI:SI;0) 298.15 0.66*GHSERAL + 0.19*GHSERFE +
    0.15*GHSERSI - 26500 + 6.135*T; 6000 N LIU99 !

$$$$$$$$$$$$$$$$$$$$$$$$$$$$$$$$$$$$$$$$$$$$$$$$$$$$$$$$$$$$$$$$$$$$$$$$$$$
$ Phase:           BCC_A2
$ Aliases:         EPSILON_1
$ Space group:     Im-3m
$ Strukturbericht: A2
$ Pearson symbol:  cI2
$ Prototype:       W
$$$$$$$$$$$$$$$$$$$$$$$$$$$$$$$$$$$$$$$$$$$$$$$$$$$$$$$$$$$$$$$$$$$$$$$$$$$
TYPE_DEFINITION & GES A_P_D BCC_A2 MAGNETIC -1.0 0.4 !
PHASE BCC_A2 %& 2 1 3 !
CONSTITUENT BCC_A2 : AL,CU,FE,MG,SI : VA : !

PARAM G(BCC_A2,AL:VA;0) 298.15 GBCCAL; 6000 N UNA09 !
PARAM G(BCC_A2,CU:VA;0) 298.15 GBCCCU; 6000 N UNA09 !
PARAM G(BCC_A2,MG:VA;0) 298.15 GBCCMG; 6000 N UNA09 !
PARAM G(BCC_A2,FE:VA;0) 298.15 GHSERFE; 6000 N UNA09 !
PARAM G(BCC_A2,SI:VA;0) 298.15 GBCCSI; 6000 N UNA09 !
PARAM TC(BCC_A2,FE:VA;0) 298.15 1043; 6000 N UNA09 !
PARAM BM(BCC_A2,FE:VA;0) 298.15 2.22; 6000 N UNA09 !

$ Al-Cu
PARAM G(BCC_A2,AL,CU:VA;0) 298.15 -73537 + 3.98*T; 6000 N LIA15 !
PARAM G(BCC_A2,AL,CU:VA;1) 298.15 51693 - 12*T; 6000 N LIA15 !

$ Al-Fe
PARAM G(BCC_A2,AL,FE:VA;0) 298.15 4*(-30740 + 7.9972*T); 6000 N LIU99 !
PARAM G(BCC_A2,AL,FE:VA;1) 298.15 2945.2; 6000 N LIU99 !
PARAM TC(BCC_A2,AL,FE:VA;0) 298.15 504; 6000 N UNA09 !

$ Al-Si
PARAM G(BCC_A2,AL,SI:VA;0) 298.15 -3143.78 + 0.39297*T; 6000 N HAL15 !

$ Cu-Fe
PARAM G(BCC_A2,CU,FE:VA;0) 298.15 39258 - 4.14983*T; 6000 N COST !

$ Cu-Si
PARAM G(BCC_A2,CU,SI:VA;0) 298.15 -19744 + 11*T; 6000 N HAL15 !
PARAM G(BCC_A2,CU,SI:VA;1) 298.15 -88450 - 9*T; 6000 N HAL15 !
$PARAM G(BCC_A2,CU,SI:VA;0) 298.15 -15324 + 15.85*T; 6000 N SOL19 !
$PARAM G(BCC_A2,CU,SI:VA;1) 298.15 -96059 + 3.89*T; 6000 N SOL19 !

$ Fe-Mg
PARAM G(BCC_A2,FE,MG:VA;0) 298.15 65700; 6000 N COST !

$ Fe-Si
PARAM G(BCC_A2,FE,SI:VA;0) 298.15 4*(-27809 + 11.62*T) +
    - 4*1260*8.314; 6000 N COST !
PARAM G(BCC_A2,FE,SI:VA;1) 298.15 -8*11544; 6000 N COST !
PARAM G(BCC_A2,FE,SI:VA;2) 298.15 16*3890; 6000 N COST !
PARAM TC(BCC_A2,FE,SI:VA;0) 298.15 8*63; 6000 N COST !

$ Al-Cu-Fe
PARAM G(BCC_A2,AL,CU,FE:VA;0) 298.15 -267841 + 131.45655*T; 6000 N CHEN09 !
PARAM G(BCC_A2,AL,CU,FE:VA;1) 298.15 -103924 + 69.91943*T; 6000 N CHEN09 !
PARAM G(BCC_A2,AL,CU,FE:VA;2) 298.15 -29249; 6000 N CHEN09 !

$ Al-Cu-Si
PARAM G(BCC_A2,AL,CU,SI:VA;0) 298.15 60000; 6000 N HAL15 !

$ Cu-Fe-Si
PARAM G(BCC_A2,CU,FE,SI:VA;0) 298.15 -276822 + 127.71*T; 6000 N  SOL19 !

$$$$$$$$$$$$$$$$$$$$$$$$$$$$$$$$$$$$$$$$$$$$$$$$$$$$$$$$$$$$$$$$$$$$$$$$$$$
$ Phase:           BCC_B2
$ Aliases:         
$ Space group:     Pm-3m
$ Strukturbericht: 
$ Pearson symbol:  cP2
$ Prototype:       CsCl
$$$$$$$$$$$$$$$$$$$$$$$$$$$$$$$$$$$$$$$$$$$$$$$$$$$$$$$$$$$$$$$$$$$$$$$$$$$
TYPE_DEFINITION B GES A_P_D BCC_B2 MAGNETIC -1.0 0.4 !
TYPE_DEFINITION C GES A_P_D BCC_B2 DIS_PART BCC_A2 !
PHASE BCC_B2 %BC 3 0.5 0.5 3 !
CONSTITUENT BCC_B2 : AL,CU,FE,MG,SI : AL,CU,FE,MG,SI : VA : !

$ Al-Cu
PARAM G(BCC_B2,AL:CU:VA;0) 298.15 -10000; 6000 N CHEN09 !
PARAM G(BCC_B2,CU:AL:VA;0) 298.15 -10000; 6000 N CHEN09 !

$ Al-Fe
PARAM G(BCC_B2,AL:FE:VA;0) 298.15 -1720*8.314; 6000 N LIU99 !
PARAM G(BCC_B2,FE:AL:VA;0) 298.15 -1720*8.314; 6000 N LIU99 !

$ Fe-Si
PARAM G(BCC_B2,FE:SI:VA;0) 298.15 -2*1260*8.314; 6000 N COST !
PARAM G(BCC_B2,SI:FE:VA;0) 298.15 -2*1260*8.314; 6000 N COST !

$ Al-Cu-Fe
PARAM G(BCC_B2,AL,FE:CU:VA;0) 298.15 -30837; 6000 N CHEN09 !
PARAM G(BCC_B2,CU:AL,FE:VA;0) 298.15 -30837; 6000 N CHEN09 !
PARAM G(BCC_B2,CU,FE:AL:VA;0) 298.15 -31874; 6000 N CHEN09 !
PARAM G(BCC_B2,AL:CU,FE:VA;0) 298.15 -31874; 6000 N CHEN09 !

$$$$$$$$$$$$$$$$$$$$$$$$$$$$$$$$$$$$$$$$$$$$$$$$$$$$$$$$$$$$$$$$$$$$$$$$$$$
$ Phase:           BETA_ALMG
$ Space group:     Fd-3m
$ Strukturbericht: 
$ Pearson symbol:  
$ Prototype:       Cd2Na
$$$$$$$$$$$$$$$$$$$$$$$$$$$$$$$$$$$$$$$$$$$$$$$$$$$$$$$$$$$$$$$$$$$$$$$$$$$
PHASE BETA_ALMG % 2 140 89 !
CONSTITUENT BETA_ALMG : AL : MG : !

PARAM G(BETA_ALMG,AL:MG;0) 298.15 140*GHSERAL + 89*GHSERMG +
        -803385 + 105.238*T; 6000 N ZHO05 !

$$$$$$$$$$$$$$$$$$$$$$$$$$$$$$$$$$$$$$$$$$$$$$$$$$$$$$$$$$$$$$$$$$$$$$$$$$$
$ Phase:           BETA_ALFESI
$ Aliases:         BETA, TAU_6, K_6, X, L
$ Space group:     
$ Strukturbericht: 
$ Pearson symbol:  
$ Prototype:       
$$$$$$$$$$$$$$$$$$$$$$$$$$$$$$$$$$$$$$$$$$$$$$$$$$$$$$$$$$$$$$$$$$$$$$$$$$$
PHASE BETA_ALFESI % 4 0.598 0.152 0.10 0.15 !
CONSTITUENT BETA_ALFESI : AL : FE : SI : AL,SI : !

PARAM G(BETA_ALFESI,AL:FE:SI:AL;0) 298.15 0.748*GHSERAL + 0.152*GHSERFE +
    0.1*GHSERSI - 19649 + 4.209*T; 6000 N LIU99 !
PARAM G(BETA_ALFESI,AL:FE:SI:SI;0) 298.15 0.598*GHSERAL + 0.152*GHSERFE +
    0.25*GHSERSI - 22008 + 6.426*T; 6000 N LIU99 !
PARAM G(BETA_ALFESI,AL:FE:SI:AL,SI;0) 298.15 -2821; 6000 N LIU99 !

$$$$$$$$$$$$$$$$$$$$$$$$$$$$$$$$$$$$$$$$$$$$$$$$$$$$$$$$$$$$$$$$$$$$$$$$$$$
$ Phase:           CUMGSI_SIGMA
$ Aliases:         
$ Space group:     P6_3/mmc
$ Strukturbericht: 
$ Pearson symbol:  hP12
$ Prototype:       
$$$$$$$$$$$$$$$$$$$$$$$$$$$$$$$$$$$$$$$$$$$$$$$$$$$$$$$$$$$$$$$$$$$$$$$$$$$
PHASE CUMGSI_SIGMA % 3 3 2 1 !
CONSTITUENT CUMGSI_SIGMA : CU : MG : SI : !

PARAM G(CUMGSI_SIGMA,CU:MG:SI;0) 298.15 3*GHSERCU + 2*GHSERMG + GHSERSI +
    -141720 + 20.26*T; 6000 N COST !

$$$$$$$$$$$$$$$$$$$$$$$$$$$$$$$$$$$$$$$$$$$$$$$$$$$$$$$$$$$$$$$$$$$$$$$$$$$
$ Phase:           CUMGSI_TAU
$ Aliases:         
$ Space group:     Fm-3m
$ Strukturbericht: 
$ Pearson symbol:  cF112
$ Prototype:       
$$$$$$$$$$$$$$$$$$$$$$$$$$$$$$$$$$$$$$$$$$$$$$$$$$$$$$$$$$$$$$$$$$$$$$$$$$$
PHASE CUMGSI_TAU % 3 16 6 7 !
CONSTITUENT CUMGSI_TAU : CU : MG : SI : !

PARAM G(CUMGSI_TAU,CU:MG:SI;0) 298.15 16*GHSERCU + 6*GHSERMG + 7*GHSERSI +
    -559636 + 110.94*T; 6000 N COST !

$$$$$$$$$$$$$$$$$$$$$$$$$$$$$$$$$$$$$$$$$$$$$$$$$$$$$$$$$$$$$$$$$$$$$$$$$$$
$ Phase:           CUMG2
$ Space group:     Fddd
$ Strukturbericht: 
$ Pearson symbol:  
$ Prototype:       
$$$$$$$$$$$$$$$$$$$$$$$$$$$$$$$$$$$$$$$$$$$$$$$$$$$$$$$$$$$$$$$$$$$$$$$$$$$
PHASE CUMG2 % 2 1 2 !
CONSTITUENT CUMG2 : CU : MG : !

PARAM G(CUMG2,CU:MG;0) 298.15 GHSERCU + 2*GHSERMG +
    -28620 + 1.86456*T; 6000 N COST !

$$$$$$$$$$$$$$$$$$$$$$$$$$$$$$$$$$$$$$$$$$$$$$$$$$$$$$$$$$$$$$$$$$$$$$$$$$$
$ Phase:           CU15SI4_D86
$ Aliases:         EPSILON
$ Space group:     I-43d
$ Strukturbericht: D86
$ Pearson symbol:  cI76
$ Prototype:       Cu15Si4
$$$$$$$$$$$$$$$$$$$$$$$$$$$$$$$$$$$$$$$$$$$$$$$$$$$$$$$$$$$$$$$$$$$$$$$$$$$
PHASE CU15SI4_D86 % 2 15 4 !
CONSTITUENT CU15SI4_D86 : CU : AL,SI : !

$ Al-Cu
PARAM G(CU15SI4_D86,CU:AL;0) 298.15 15*GHSERCU + 4*GHSERAL +
    -228000; 6000 N HAL15 !

$ Cu-Si
PARAM G(CU15SI4_D86,CU:SI;0) 298.15 15*GHSERCU + 4*GHSERSI +
    -88065 - 77.9*T; 6000 N HAL15 !
$PARAM G(CU15SI4_D86,CU:SI;0) 298.15 15*GHSERCU + 4*GHSERSI +
$    -39336 - 88.32*T; 6000 N SOL19 !

$ Al-Cu-Si
PARAM G(CU15SI4_D86,CU:AL,SI;0) 298.15 -30000; 6000 N HAL15 !

$$$$$$$$$$$$$$$$$$$$$$$$$$$$$$$$$$$$$$$$$$$$$$$$$$$$$$$$$$$$$$$$$$$$$$$$$$$
$ Phase:           CU3SI_HT
$ Aliases:         ETA
$ Space group:     R-3m
$ Strukturbericht: 
$ Pearson symbol:  hR
$ Prototype:       
$$$$$$$$$$$$$$$$$$$$$$$$$$$$$$$$$$$$$$$$$$$$$$$$$$$$$$$$$$$$$$$$$$$$$$$$$$$
PHASE CU3SI_HT % 2 0.76 0.24 !
CONSTITUENT CU3SI_HT : CU : AL,SI : !

$ Al-Cu
PARAM G(CU3SI_HT,CU:AL;0) 298.15 0.76*GHSERCU + 0.24*GHSERAL +
    -13000; 6000 N HAL15 !

$ Cu-Si
PARAM G(CU3SI_HT,CU:SI;0) 298.15 0.76*GHSERCU + 0.24*GHSERSI +
    -2885 - 6.23*T; 6000 N HAL15 !
$PARAM G(CU3SI_HT,CU:SI;0) 298.15 0.76*GHSERCU + 0.24*GHSERSI +
$    -584.7 - 6.46*T; 6000 N SOL19 !

$ Al-Cu-Si
PARAM G(CU3SI_HT,CU:AL,SI;0) 298.15 -2500; 6000 N HAL15 !

$$$$$$$$$$$$$$$$$$$$$$$$$$$$$$$$$$$$$$$$$$$$$$$$$$$$$$$$$$$$$$$$$$$$$$$$$$$
$ Phase:           CU3SI_LT
$ Aliases:         ETA_D_PRIME
$ Space group:     
$ Strukturbericht: 
$ Pearson symbol:  oC
$ Prototype:       
$$$$$$$$$$$$$$$$$$$$$$$$$$$$$$$$$$$$$$$$$$$$$$$$$$$$$$$$$$$$$$$$$$$$$$$$$$$
PHASE CU3SI_LT % 2 0.77 0.23 !
CONSTITUENT CU3SI_LT : CU : AL,SI : !

$ Al-Cu
PARAM G(CU3SI_LT,CU:AL;0) 298.15 0.77*GHSERCU + 0.23*GHSERAL +
    -13000; 6000 N HAL15 !

PARAM G(CU3SI_LT,CU:SI;0) 298.15 0.77*GHSERCU + 0.23*GHSERSI +
    -4770 - 4*T; 6000 N HAL15 !
$PARAM G(CU3SI_LT,CU:SI;0) 298.15 0.77*GHSERCU + 0.23*GHSERSI +
$    -1921 - 4.88*T; 6000 N SOL19 !

$ Al-Cu-Si
PARAM G(CU3SI_LT,CU:AL,SI;0) 298.15 -2500; 6000 N HAL15 !

$$$$$$$$$$$$$$$$$$$$$$$$$$$$$$$$$$$$$$$$$$$$$$$$$$$$$$$$$$$$$$$$$$$$$$$$$$$
$ Phase:           CU3SI_MT
$ Aliases:         ETA_PRIME
$ Space group:     R-3
$ Strukturbericht: 
$ Pearson symbol:  hR9
$ Prototype:       Cu3Si
$$$$$$$$$$$$$$$$$$$$$$$$$$$$$$$$$$$$$$$$$$$$$$$$$$$$$$$$$$$$$$$$$$$$$$$$$$$
PHASE CU3SI_MT % 2 0.765 0.235 !
CONSTITUENT CU3SI_MT : CU : AL,SI : !

$ Al-Cu
PARAM G(CU3SI_MT,CU:AL;0) 298.15 0.765*GHSERCU + 0.235*GHSERAL +
    -13000; 6000 N HAL15 !

$ Cu-Si
PARAM G(CU3SI_MT,CU:SI;0) 298.15 0.765*GHSERCU + 0.235*GHSERSI +
    -4060 - 4.88*T; 6000 N HAL15 !
$PARAM G(CU3SI_MT,CU:SI;0) 298.15 0.765*GHSERCU + 0.235*GHSERSI +
$    -1402 - 5.52*T; 6000 N !

$ Al-Cu-Si
PARAM G(CU3SI_MT,CU:AL,SI;0) 298.15 -2500; 6000 N HAL15 !

$$$$$$$$$$$$$$$$$$$$$$$$$$$$$$$$$$$$$$$$$$$$$$$$$$$$$$$$$$$$$$$$$$$$$$$$$$$
$ Phase:           CU33SI7_A13
$ Aliases:         GAMMA
$ Space group:     P4_132
$ Strukturbericht: A13
$ Pearson symbol:  cP20
$ Prototype:       beta-Mn
$$$$$$$$$$$$$$$$$$$$$$$$$$$$$$$$$$$$$$$$$$$$$$$$$$$$$$$$$$$$$$$$$$$$$$$$$$$
PHASE CU33SI7_A13 % 2 33 7 !
CONSTITUENT CU33SI7_A13 : CU : AL,SI : !

$ Al-Cu
PARAM G(CU33SI7_A13,CU:AL;0) 298.15 33*GHSERCU + 7*GHSERAL +
    -460000; 6000 N HAL15 !

$ Cu-Si
PARAM G(CU33SI7_A13,CU:SI;0) 298.15 33*GHSERCU + 7*GHSERSI +
    -156240 - 163.2*T; 6000 N HAL15 !
$PARAM G(CU33SI7_A13,CU:SI;0) 298.15 33*GHSERCU + 7*GHSERSI +
$    -99152 - 146.44*T; 6000 N SOL19 !

$ Al-Cu-Si
PARAM G(CU33SI7_A13,CU:AL,SI;0) 298.15 -75000; 6000 N HAL15 !

$$$$$$$$$$$$$$$$$$$$$$$$$$$$$$$$$$$$$$$$$$$$$$$$$$$$$$$$$$$$$$$$$$$$$$$$$$$
$ Phase:           CU33SI7_HT
$ Aliases:         DELTA
$ Space group:     
$ Strukturbericht: 
$ Pearson symbol:  tP
$ Prototype:       
$$$$$$$$$$$$$$$$$$$$$$$$$$$$$$$$$$$$$$$$$$$$$$$$$$$$$$$$$$$$$$$$$$$$$$$$$$$
PHASE CU33SI7_HT % 2 33 7 !
CONSTITUENT CU33SI7_HT : CU : AL,SI : !

$ Al-Cu
PARAM G(CU33SI7_HT,CU:AL;0) 298.15 33*GHSERCU + 7*GHSERAL +
    -460000; 6000 N HAL15 !

$ Cu-Si
PARAM G(CU33SI7_HT,CU:SI;0) 298.15 33*GHSERCU + 7*GHSERSI +
    -90160 - 228.8*T; 6000 N HAL15 !
$PARAM G(CU33SI7_HT,CU:SI;0) 298.15 33*GHSERCU + 7*GHSERSI +
$    -42398 - 202.86*T; 6000 N SOL19 !

$ Al-Cu-Si
PARAM G(CU33SI7_HT,CU:AL,SI;0) 298.15 -75000; 6000 N HAL15 !

$$$$$$$$$$$$$$$$$$$$$$$$$$$$$$$$$$$$$$$$$$$$$$$$$$$$$$$$$$$$$$$$$$$$$$$$$$$
$ Phase:           DELTA_ALFESI
$ Aliases:         DELTA, TAU_4, K_4, A
$ Space group:     
$ Strukturbericht: 
$ Pearson symbol:  
$ Prototype:       
$$$$$$$$$$$$$$$$$$$$$$$$$$$$$$$$$$$$$$$$$$$$$$$$$$$$$$$$$$$$$$$$$$$$$$$$$$$
PHASE DELTA_ALFESI % 3 0.49 0.16 0.35 !
CONSTITUENT DELTA_ALFESI : AL : FE : SI : !

PARAM G(DELTA_ALFESI,AL:FE:SI;0) 298.15 0.49*GHSERAL + 0.16*GHSERFE + 
    0.35*GHSERSI - 21618 + 3.617*T; 6000 N LIU99 !

$$$$$$$$$$$$$$$$$$$$$$$$$$$$$$$$$$$$$$$$$$$$$$$$$$$$$$$$$$$$$$$$$$$$$$$$$$$
$ Phase:           DIAMOND_A4
$ Space group:     
$ Strukturbericht: A4
$ Pearson symbol:  
$ Prototype:       
$$$$$$$$$$$$$$$$$$$$$$$$$$$$$$$$$$$$$$$$$$$$$$$$$$$$$$$$$$$$$$$$$$$$$$$$$$$
PHASE DIAMOND_A4 % 1 1 !
CONSTITUENT DIAMOND_A4 : AL,SI : !

PARAM G(DIAMOND_A4,AL;0) 298.15 30*T+GHSERAL; 6000 N UNA50 !
PARAM G(DIAMOND_A4,SI;0) 298.15 GHSERSI; 6000 N UNA09 !
PARAM G(DIAMOND_A4,AL,SI;0) 298.15 111417.7 - 46.1392*T; 6000 N LIU99 !

$$$$$$$$$$$$$$$$$$$$$$$$$$$$$$$$$$$$$$$$$$$$$$$$$$$$$$$$$$$$$$$$$$$$$$$$$$$
$ Phase:           EPSILON_ALMG
$ Space group:     R-3
$ Strukturbericht: 
$ Pearson symbol:  
$ Prototype:       Co5Cr2Mo3
$$$$$$$$$$$$$$$$$$$$$$$$$$$$$$$$$$$$$$$$$$$$$$$$$$$$$$$$$$$$$$$$$$$$$$$$$$$
PHASE EPSILON_ALMG % 2 30 23 !
CONSTITUENT EPSILON_ALMG : AL : MG : !

PARAM G(EPSILON_ALMG,AL:MG;0) 298.15 30*GHSERAL + 23*GHSERMG +
        -170832 - 8.047*T; 6000 N ZHO05 !

$$$$$$$$$$$$$$$$$$$$$$$$$$$$$$$$$$$$$$$$$$$$$$$$$$$$$$$$$$$$$$$$$$$$$$$$$$$
$ Phase:           FCC_A1
$ Space group:     Fm-3m
$ Strukturbericht: A1
$ Pearson symbol:  cF4
$ Prototype:       Cu
$$$$$$$$$$$$$$$$$$$$$$$$$$$$$$$$$$$$$$$$$$$$$$$$$$$$$$$$$$$$$$$$$$$$$$$$$$$
TYPE_DEFINITION ( GES A_P_D FCC_A1 MAGNETIC -3.0 0.28 !
PHASE FCC_A1 %( 2 1 1 !
CONSTITUENT FCC_A1 : AL,CU,MG,FE,SI : VA : !

PARAM G(FCC_A1,AL:VA;0) 298.15 GHSERAL; 6000 N UNA09 !
PARAM G(FCC_A1,CU:VA;0) 298.15 GHSERCU; 6000 N UNA09 !
PARAM G(FCC_A1,MG:VA;0) 298.15 GFCCMG; 6000 N UNA09 !
PARAM G(FCC_A1,FE:VA;0) 298.15 GFCCFE; 6000 N UNA09 !
PARAM G(FCC_A1,SI:VA;0) 298.15 GFCCSI; 6000 N UNA09 !
PARAM TC(FCC_A1,FE:VA;0) 298.15 -201; 6000 N UNA09 !
PARAM BM(FCC_A1,FE:VA;0) 298.15 -2.10; 6000 N UNA09 !

$ Al-Cu
PARAM G(FCC_A1,AL,CU:VA;0) 298.15 -53520 + 2*T; 6000 N LIA15 !
$ Sign of 39005 was flipped here to better produce the phase diagram
PARAM G(FCC_A1,AL,CU:VA;1) 298.15 39005 - 2.368*T; 6000 N LIA15 !
PARAM G(FCC_A1,AL,CU:VA;2) 298.15 1210; 6000 N LIA15 !

$ Al-Mg
PARAM G(FCC_A1,AL,MG:VA;0) 298.15 1593 + 2.149*T; 6000 N ZHO05 !
PARAM G(FCC_A1,AL,MG:VA;1) 298.15 1014 - 0.660*T; 6000 N ZHO05 !
PARAM G(FCC_A1,AL,MG:VA;2) 298.15 -673; 6000 N ZHO05 !

$ Al-Fe
PARAM G(FCC_A1,AL,FE:VA;0) 298.15 -76066.1 + 18.6758*T; 6000 N LIU99 !
PARAM G(FCC_A1,AL,FE:VA;1) 298.15 21164.4 + 1.3398*T; 6000 N LIU99 !

$ Al-Si
PARAM G(FCC_A1,AL,SI:VA;0) 298.15 -3423.91 - 0.09584*T; 6000 N LIU99 !

$ Cu-Fe
PARAM G(FCC_A1,CU,FE:VA;0) 298.15 48232.5 - 8.60954*T; 6000 N COST !
PARAM G(FCC_A1,CU,FE:VA;1) 298.15 8861.88 - 5.28975*T; 6000 N COST !

$ Cu-Mg
PARAM G(FCC_A1,CU,MG:VA;0) 298.15 -22059.61 + 5.63232*T; 6000 N COST !

$ Cu-Si
PARAM G(FCC_A1,CU,SI:VA;0) 298.15 -32244 + 20*T; 6000 N HAL15 !
PARAM G(FCC_A1,CU,SI:VA;1) 298.15 -43581 - 28.5*T; 6000 N HAL15 !
$PARAM G(FCC_A1,CU,SI:VA;0) 298.15 -34202 + 20.5*T; 6000 N SOL19 !
$PARAM G(FCC_A1,CU,SI:VA;1) 298.15 -47112 - 5.21*T; 6000 N SOL19 !

$ Fe-Mg
PARAM G(FCC_A1,FE,MG:VA;0) 298.15 65200; 6000 N COST !

$ Fe-Si
PARAM G(FCC_A1,FE,SI:VA;0) 298.15 -125247.7 + 41.166*T; 6000 N LIU99 !
PARAM G(FCC_A1,FE,SI:VA;1) 298.15 -142707.6; 6000 N LIU99 !
PARAM G(FCC_A1,FE,SI:VA;2) 298.15 89907.3; 6000 N LIU99 !

$ Al-Cu-Mg
PARAM G(FCC_A1,AL,CU,MG:VA;0) 298.15 59235; 6000 N BUH98 !
PARAM G(FCC_A1,AL,CU,MG:VA;1) 298.15 0; 6000 N BUH98 !
PARAM G(FCC_A1,AL,CU,MG:VA;2) 298.15 0; 6000 N BUH98 !

$ Cu-Fe-Si
PARAM G(FCC_A1,CU,FE,SI:VA;0) 298.15 -200726 + 82.52*T; 6000 N !

$$$$$$$$$$$$$$$$$$$$$$$$$$$$$$$$$$$$$$$$$$$$$$$$$$$$$$$$$$$$$$$$$$$$$$$$$$$
$ Phase:           FE2SI
$ Aliases:         
$ Space group:     P-3m1
$ Strukturbericht: 
$ Pearson symbol:  hP6
$ Prototype:       
$$$$$$$$$$$$$$$$$$$$$$$$$$$$$$$$$$$$$$$$$$$$$$$$$$$$$$$$$$$$$$$$$$$$$$$$$$$
PHASE FE2SI % 2 2 1 !
CONSTITUENT FE2SI : CU,FE : SI : !

PARAM G(FE2SI,FE:SI;0) 298.15 2*GHSERFE + GHSERSI + 
    -71256.6 - 10.62*T; 6000 N LIU99 !

PARAM G(FE2SI,CU:SI;0) 298.15 2*GHSERCU + GHSERSI + 
    10000; 6000 N SOL19 !    

$$$$$$$$$$$$$$$$$$$$$$$$$$$$$$$$$$$$$$$$$$$$$$$$$$$$$$$$$$$$$$$$$$$$$$$$$$$